(set-info :smt-lib-version 2.6)
(set-logic QF_S)
(set-info :source |
Generated by: Joel Day, Thorsten Ehlers, Mitja Kulczynski, Federico Mora, Florin Manea, Dirk Nowotka, Danny Poulsen, Zhengyang Lu
Application: Test WOORPJE
Target solver: WOORPJE
Publications: Day, J. D., Ehlers, T., Kulczynski, M., Manea, F., Nowotka, D., & Poulsen, D. B. (2019). On solving word equations using SAT. In RP 2019
Description: Transoformed and expanded from Track02
|)
(set-info :license "https://creativecommons.org/licenses/by/4.0/")
(set-info :category "random")
(set-info :status unknown)

(declare-fun S () String)
(declare-fun J () String)
(declare-fun I () String)
(declare-fun K () String)
(declare-fun R () String)
(declare-fun V () String)
(declare-fun G () String)
(declare-fun U () String)
(declare-fun M () String)
(declare-fun P () String)
(assert (= (str.++  I I "a" I "aa" G G G "aa" I I "a" I "aa" G G G "ab" K J "ab" P "ab" S S "b" V)  (str.++  "a" J G I I "a" I J J M "a" M "a" J J M "a" M "abaa" M "aa" M "b" R R R R "b" U U "baa") ))
(check-sat)

(exit)
